44
Route #1: 1 16 
Route #2: 2 14 
Route #3: 3 22 
Route #4: 4 12 28 
Route #5: 5 13 
Route #6: 6 15 
Route #7: 7 21 
Route #8: 8 20 25 
Route #9: 9 23 
Route #10: 10 17 
Route #11: 11 31 37 
Route #12: 18 27 
Route #13: 19 32 36 43 
Route #14: 24 30 38 
Route #15: 26 34 
Route #16: 29 35 
Route #17: 33 53 
Route #18: 39 50 62 
Route #19: 40 68 
Route #20: 41 57 70 
Route #21: 42 54 81 
Route #22: 44 64 
Route #23: 45 51 65 
Route #24: 46 55 
Route #25: 47 69 
Route #26: 48 56 
Route #27: 49 58 80 
Route #28: 52 66 84 
Route #29: 59 78 
Route #30: 60 
Route #31: 61 72 85 
Route #32: 63 83 88 
Route #33: 67 75 90 
Route #34: 71 87 
Route #35: 73 
Route #36: 74 89 94 
Route #37: 76 92 100 
Route #38: 77 96 
Route #39: 79 91 
Route #40: 82 93 
Route #41: 86 95 
Route #42: 97 
Route #43: 98 
Route #44: 99 
Cost 69316.0
